\* sudoku *\
Minimize
OBJ: __dummy
Subject To
_C1: X_1_1_1 + X_1_1_2 + X_1_1_3 + X_1_2_1 + X_1_2_2 + X_1_2_3 + X_1_3_1
 + X_1_3_2 + X_1_3_3 = 1
_C10: X_1_1_4 + X_1_1_5 + X_1_1_6 + X_1_2_4 + X_1_2_5 + X_1_2_6 + X_1_3_4
 + X_1_3_5 + X_1_3_6 = 1
_C100: X_1_7_1 + X_1_7_2 + X_1_7_3 + X_1_7_4 + X_1_7_5 + X_1_7_6 + X_1_7_7
 + X_1_7_8 + X_1_7_9 = 1
_C101: X_1_1_7 + X_1_2_7 + X_1_3_7 + X_1_4_7 + X_1_5_7 + X_1_6_7 + X_1_7_7
 + X_1_8_7 + X_1_9_7 = 1
_C102: X_1_1_7 + X_2_1_7 + X_3_1_7 + X_4_1_7 + X_5_1_7 + X_6_1_7 + X_7_1_7
 + X_8_1_7 + X_9_1_7 = 1
_C103: X_1_8_1 + X_1_8_2 + X_1_8_3 + X_1_8_4 + X_1_8_5 + X_1_8_6 + X_1_8_7
 + X_1_8_8 + X_1_8_9 = 1
_C104: X_1_1_8 + X_1_2_8 + X_1_3_8 + X_1_4_8 + X_1_5_8 + X_1_6_8 + X_1_7_8
 + X_1_8_8 + X_1_9_8 = 1
_C105: X_1_1_8 + X_2_1_8 + X_3_1_8 + X_4_1_8 + X_5_1_8 + X_6_1_8 + X_7_1_8
 + X_8_1_8 + X_9_1_8 = 1
_C106: X_1_9_1 + X_1_9_2 + X_1_9_3 + X_1_9_4 + X_1_9_5 + X_1_9_6 + X_1_9_7
 + X_1_9_8 + X_1_9_9 = 1
_C107: X_1_1_9 + X_1_2_9 + X_1_3_9 + X_1_4_9 + X_1_5_9 + X_1_6_9 + X_1_7_9
 + X_1_8_9 + X_1_9_9 = 1
_C108: X_1_1_9 + X_2_1_9 + X_3_1_9 + X_4_1_9 + X_5_1_9 + X_6_1_9 + X_7_1_9
 + X_8_1_9 + X_9_1_9 = 1
_C109: X_2_1_1 + X_2_1_2 + X_2_1_3 + X_2_1_4 + X_2_1_5 + X_2_1_6 + X_2_1_7
 + X_2_1_8 + X_2_1_9 = 1
_C11: X_2_1_4 + X_2_1_5 + X_2_1_6 + X_2_2_4 + X_2_2_5 + X_2_2_6 + X_2_3_4
 + X_2_3_5 + X_2_3_6 = 1
_C110: X_2_1_1 + X_2_2_1 + X_2_3_1 + X_2_4_1 + X_2_5_1 + X_2_6_1 + X_2_7_1
 + X_2_8_1 + X_2_9_1 = 1
_C111: X_1_2_1 + X_2_2_1 + X_3_2_1 + X_4_2_1 + X_5_2_1 + X_6_2_1 + X_7_2_1
 + X_8_2_1 + X_9_2_1 = 1
_C112: X_2_2_1 + X_2_2_2 + X_2_2_3 + X_2_2_4 + X_2_2_5 + X_2_2_6 + X_2_2_7
 + X_2_2_8 + X_2_2_9 = 1
_C113: X_2_1_2 + X_2_2_2 + X_2_3_2 + X_2_4_2 + X_2_5_2 + X_2_6_2 + X_2_7_2
 + X_2_8_2 + X_2_9_2 = 1
_C114: X_1_2_2 + X_2_2_2 + X_3_2_2 + X_4_2_2 + X_5_2_2 + X_6_2_2 + X_7_2_2
 + X_8_2_2 + X_9_2_2 = 1
_C115: X_2_3_1 + X_2_3_2 + X_2_3_3 + X_2_3_4 + X_2_3_5 + X_2_3_6 + X_2_3_7
 + X_2_3_8 + X_2_3_9 = 1
_C116: X_2_1_3 + X_2_2_3 + X_2_3_3 + X_2_4_3 + X_2_5_3 + X_2_6_3 + X_2_7_3
 + X_2_8_3 + X_2_9_3 = 1
_C117: X_1_2_3 + X_2_2_3 + X_3_2_3 + X_4_2_3 + X_5_2_3 + X_6_2_3 + X_7_2_3
 + X_8_2_3 + X_9_2_3 = 1
_C118: X_2_4_1 + X_2_4_2 + X_2_4_3 + X_2_4_4 + X_2_4_5 + X_2_4_6 + X_2_4_7
 + X_2_4_8 + X_2_4_9 = 1
_C119: X_2_1_4 + X_2_2_4 + X_2_3_4 + X_2_4_4 + X_2_5_4 + X_2_6_4 + X_2_7_4
 + X_2_8_4 + X_2_9_4 = 1
_C12: X_3_1_4 + X_3_1_5 + X_3_1_6 + X_3_2_4 + X_3_2_5 + X_3_2_6 + X_3_3_4
 + X_3_3_5 + X_3_3_6 = 1
_C120: X_1_2_4 + X_2_2_4 + X_3_2_4 + X_4_2_4 + X_5_2_4 + X_6_2_4 + X_7_2_4
 + X_8_2_4 + X_9_2_4 = 1
_C121: X_2_5_1 + X_2_5_2 + X_2_5_3 + X_2_5_4 + X_2_5_5 + X_2_5_6 + X_2_5_7
 + X_2_5_8 + X_2_5_9 = 1
_C122: X_2_1_5 + X_2_2_5 + X_2_3_5 + X_2_4_5 + X_2_5_5 + X_2_6_5 + X_2_7_5
 + X_2_8_5 + X_2_9_5 = 1
_C123: X_1_2_5 + X_2_2_5 + X_3_2_5 + X_4_2_5 + X_5_2_5 + X_6_2_5 + X_7_2_5
 + X_8_2_5 + X_9_2_5 = 1
_C124: X_2_6_1 + X_2_6_2 + X_2_6_3 + X_2_6_4 + X_2_6_5 + X_2_6_6 + X_2_6_7
 + X_2_6_8 + X_2_6_9 = 1
_C125: X_2_1_6 + X_2_2_6 + X_2_3_6 + X_2_4_6 + X_2_5_6 + X_2_6_6 + X_2_7_6
 + X_2_8_6 + X_2_9_6 = 1
_C126: X_1_2_6 + X_2_2_6 + X_3_2_6 + X_4_2_6 + X_5_2_6 + X_6_2_6 + X_7_2_6
 + X_8_2_6 + X_9_2_6 = 1
_C127: X_2_7_1 + X_2_7_2 + X_2_7_3 + X_2_7_4 + X_2_7_5 + X_2_7_6 + X_2_7_7
 + X_2_7_8 + X_2_7_9 = 1
_C128: X_2_1_7 + X_2_2_7 + X_2_3_7 + X_2_4_7 + X_2_5_7 + X_2_6_7 + X_2_7_7
 + X_2_8_7 + X_2_9_7 = 1
_C129: X_1_2_7 + X_2_2_7 + X_3_2_7 + X_4_2_7 + X_5_2_7 + X_6_2_7 + X_7_2_7
 + X_8_2_7 + X_9_2_7 = 1
_C13: X_4_1_4 + X_4_1_5 + X_4_1_6 + X_4_2_4 + X_4_2_5 + X_4_2_6 + X_4_3_4
 + X_4_3_5 + X_4_3_6 = 1
_C130: X_2_8_1 + X_2_8_2 + X_2_8_3 + X_2_8_4 + X_2_8_5 + X_2_8_6 + X_2_8_7
 + X_2_8_8 + X_2_8_9 = 1
_C131: X_2_1_8 + X_2_2_8 + X_2_3_8 + X_2_4_8 + X_2_5_8 + X_2_6_8 + X_2_7_8
 + X_2_8_8 + X_2_9_8 = 1
_C132: X_1_2_8 + X_2_2_8 + X_3_2_8 + X_4_2_8 + X_5_2_8 + X_6_2_8 + X_7_2_8
 + X_8_2_8 + X_9_2_8 = 1
_C133: X_2_9_1 + X_2_9_2 + X_2_9_3 + X_2_9_4 + X_2_9_5 + X_2_9_6 + X_2_9_7
 + X_2_9_8 + X_2_9_9 = 1
_C134: X_2_1_9 + X_2_2_9 + X_2_3_9 + X_2_4_9 + X_2_5_9 + X_2_6_9 + X_2_7_9
 + X_2_8_9 + X_2_9_9 = 1
_C135: X_1_2_9 + X_2_2_9 + X_3_2_9 + X_4_2_9 + X_5_2_9 + X_6_2_9 + X_7_2_9
 + X_8_2_9 + X_9_2_9 = 1
_C136: X_3_1_1 + X_3_1_2 + X_3_1_3 + X_3_1_4 + X_3_1_5 + X_3_1_6 + X_3_1_7
 + X_3_1_8 + X_3_1_9 = 1
_C137: X_3_1_1 + X_3_2_1 + X_3_3_1 + X_3_4_1 + X_3_5_1 + X_3_6_1 + X_3_7_1
 + X_3_8_1 + X_3_9_1 = 1
_C138: X_1_3_1 + X_2_3_1 + X_3_3_1 + X_4_3_1 + X_5_3_1 + X_6_3_1 + X_7_3_1
 + X_8_3_1 + X_9_3_1 = 1
_C139: X_3_2_1 + X_3_2_2 + X_3_2_3 + X_3_2_4 + X_3_2_5 + X_3_2_6 + X_3_2_7
 + X_3_2_8 + X_3_2_9 = 1
_C14: X_5_1_4 + X_5_1_5 + X_5_1_6 + X_5_2_4 + X_5_2_5 + X_5_2_6 + X_5_3_4
 + X_5_3_5 + X_5_3_6 = 1
_C140: X_3_1_2 + X_3_2_2 + X_3_3_2 + X_3_4_2 + X_3_5_2 + X_3_6_2 + X_3_7_2
 + X_3_8_2 + X_3_9_2 = 1
_C141: X_1_3_2 + X_2_3_2 + X_3_3_2 + X_4_3_2 + X_5_3_2 + X_6_3_2 + X_7_3_2
 + X_8_3_2 + X_9_3_2 = 1
_C142: X_3_3_1 + X_3_3_2 + X_3_3_3 + X_3_3_4 + X_3_3_5 + X_3_3_6 + X_3_3_7
 + X_3_3_8 + X_3_3_9 = 1
_C143: X_3_1_3 + X_3_2_3 + X_3_3_3 + X_3_4_3 + X_3_5_3 + X_3_6_3 + X_3_7_3
 + X_3_8_3 + X_3_9_3 = 1
_C144: X_1_3_3 + X_2_3_3 + X_3_3_3 + X_4_3_3 + X_5_3_3 + X_6_3_3 + X_7_3_3
 + X_8_3_3 + X_9_3_3 = 1
_C145: X_3_4_1 + X_3_4_2 + X_3_4_3 + X_3_4_4 + X_3_4_5 + X_3_4_6 + X_3_4_7
 + X_3_4_8 + X_3_4_9 = 1
_C146: X_3_1_4 + X_3_2_4 + X_3_3_4 + X_3_4_4 + X_3_5_4 + X_3_6_4 + X_3_7_4
 + X_3_8_4 + X_3_9_4 = 1
_C147: X_1_3_4 + X_2_3_4 + X_3_3_4 + X_4_3_4 + X_5_3_4 + X_6_3_4 + X_7_3_4
 + X_8_3_4 + X_9_3_4 = 1
_C148: X_3_5_1 + X_3_5_2 + X_3_5_3 + X_3_5_4 + X_3_5_5 + X_3_5_6 + X_3_5_7
 + X_3_5_8 + X_3_5_9 = 1
_C149: X_3_1_5 + X_3_2_5 + X_3_3_5 + X_3_4_5 + X_3_5_5 + X_3_6_5 + X_3_7_5
 + X_3_8_5 + X_3_9_5 = 1
_C15: X_6_1_4 + X_6_1_5 + X_6_1_6 + X_6_2_4 + X_6_2_5 + X_6_2_6 + X_6_3_4
 + X_6_3_5 + X_6_3_6 = 1
_C150: X_1_3_5 + X_2_3_5 + X_3_3_5 + X_4_3_5 + X_5_3_5 + X_6_3_5 + X_7_3_5
 + X_8_3_5 + X_9_3_5 = 1
_C151: X_3_6_1 + X_3_6_2 + X_3_6_3 + X_3_6_4 + X_3_6_5 + X_3_6_6 + X_3_6_7
 + X_3_6_8 + X_3_6_9 = 1
_C152: X_3_1_6 + X_3_2_6 + X_3_3_6 + X_3_4_6 + X_3_5_6 + X_3_6_6 + X_3_7_6
 + X_3_8_6 + X_3_9_6 = 1
_C153: X_1_3_6 + X_2_3_6 + X_3_3_6 + X_4_3_6 + X_5_3_6 + X_6_3_6 + X_7_3_6
 + X_8_3_6 + X_9_3_6 = 1
_C154: X_3_7_1 + X_3_7_2 + X_3_7_3 + X_3_7_4 + X_3_7_5 + X_3_7_6 + X_3_7_7
 + X_3_7_8 + X_3_7_9 = 1
_C155: X_3_1_7 + X_3_2_7 + X_3_3_7 + X_3_4_7 + X_3_5_7 + X_3_6_7 + X_3_7_7
 + X_3_8_7 + X_3_9_7 = 1
_C156: X_1_3_7 + X_2_3_7 + X_3_3_7 + X_4_3_7 + X_5_3_7 + X_6_3_7 + X_7_3_7
 + X_8_3_7 + X_9_3_7 = 1
_C157: X_3_8_1 + X_3_8_2 + X_3_8_3 + X_3_8_4 + X_3_8_5 + X_3_8_6 + X_3_8_7
 + X_3_8_8 + X_3_8_9 = 1
_C158: X_3_1_8 + X_3_2_8 + X_3_3_8 + X_3_4_8 + X_3_5_8 + X_3_6_8 + X_3_7_8
 + X_3_8_8 + X_3_9_8 = 1
_C159: X_1_3_8 + X_2_3_8 + X_3_3_8 + X_4_3_8 + X_5_3_8 + X_6_3_8 + X_7_3_8
 + X_8_3_8 + X_9_3_8 = 1
_C16: X_7_1_4 + X_7_1_5 + X_7_1_6 + X_7_2_4 + X_7_2_5 + X_7_2_6 + X_7_3_4
 + X_7_3_5 + X_7_3_6 = 1
_C160: X_3_9_1 + X_3_9_2 + X_3_9_3 + X_3_9_4 + X_3_9_5 + X_3_9_6 + X_3_9_7
 + X_3_9_8 + X_3_9_9 = 1
_C161: X_3_1_9 + X_3_2_9 + X_3_3_9 + X_3_4_9 + X_3_5_9 + X_3_6_9 + X_3_7_9
 + X_3_8_9 + X_3_9_9 = 1
_C162: X_1_3_9 + X_2_3_9 + X_3_3_9 + X_4_3_9 + X_5_3_9 + X_6_3_9 + X_7_3_9
 + X_8_3_9 + X_9_3_9 = 1
_C163: X_4_1_1 + X_4_1_2 + X_4_1_3 + X_4_1_4 + X_4_1_5 + X_4_1_6 + X_4_1_7
 + X_4_1_8 + X_4_1_9 = 1
_C164: X_4_1_1 + X_4_2_1 + X_4_3_1 + X_4_4_1 + X_4_5_1 + X_4_6_1 + X_4_7_1
 + X_4_8_1 + X_4_9_1 = 1
_C165: X_1_4_1 + X_2_4_1 + X_3_4_1 + X_4_4_1 + X_5_4_1 + X_6_4_1 + X_7_4_1
 + X_8_4_1 + X_9_4_1 = 1
_C166: X_4_2_1 + X_4_2_2 + X_4_2_3 + X_4_2_4 + X_4_2_5 + X_4_2_6 + X_4_2_7
 + X_4_2_8 + X_4_2_9 = 1
_C167: X_4_1_2 + X_4_2_2 + X_4_3_2 + X_4_4_2 + X_4_5_2 + X_4_6_2 + X_4_7_2
 + X_4_8_2 + X_4_9_2 = 1
_C168: X_1_4_2 + X_2_4_2 + X_3_4_2 + X_4_4_2 + X_5_4_2 + X_6_4_2 + X_7_4_2
 + X_8_4_2 + X_9_4_2 = 1
_C169: X_4_3_1 + X_4_3_2 + X_4_3_3 + X_4_3_4 + X_4_3_5 + X_4_3_6 + X_4_3_7
 + X_4_3_8 + X_4_3_9 = 1
_C17: X_8_1_4 + X_8_1_5 + X_8_1_6 + X_8_2_4 + X_8_2_5 + X_8_2_6 + X_8_3_4
 + X_8_3_5 + X_8_3_6 = 1
_C170: X_4_1_3 + X_4_2_3 + X_4_3_3 + X_4_4_3 + X_4_5_3 + X_4_6_3 + X_4_7_3
 + X_4_8_3 + X_4_9_3 = 1
_C171: X_1_4_3 + X_2_4_3 + X_3_4_3 + X_4_4_3 + X_5_4_3 + X_6_4_3 + X_7_4_3
 + X_8_4_3 + X_9_4_3 = 1
_C172: X_4_4_1 + X_4_4_2 + X_4_4_3 + X_4_4_4 + X_4_4_5 + X_4_4_6 + X_4_4_7
 + X_4_4_8 + X_4_4_9 = 1
_C173: X_4_1_4 + X_4_2_4 + X_4_3_4 + X_4_4_4 + X_4_5_4 + X_4_6_4 + X_4_7_4
 + X_4_8_4 + X_4_9_4 = 1
_C174: X_1_4_4 + X_2_4_4 + X_3_4_4 + X_4_4_4 + X_5_4_4 + X_6_4_4 + X_7_4_4
 + X_8_4_4 + X_9_4_4 = 1
_C175: X_4_5_1 + X_4_5_2 + X_4_5_3 + X_4_5_4 + X_4_5_5 + X_4_5_6 + X_4_5_7
 + X_4_5_8 + X_4_5_9 = 1
_C176: X_4_1_5 + X_4_2_5 + X_4_3_5 + X_4_4_5 + X_4_5_5 + X_4_6_5 + X_4_7_5
 + X_4_8_5 + X_4_9_5 = 1
_C177: X_1_4_5 + X_2_4_5 + X_3_4_5 + X_4_4_5 + X_5_4_5 + X_6_4_5 + X_7_4_5
 + X_8_4_5 + X_9_4_5 = 1
_C178: X_4_6_1 + X_4_6_2 + X_4_6_3 + X_4_6_4 + X_4_6_5 + X_4_6_6 + X_4_6_7
 + X_4_6_8 + X_4_6_9 = 1
_C179: X_4_1_6 + X_4_2_6 + X_4_3_6 + X_4_4_6 + X_4_5_6 + X_4_6_6 + X_4_7_6
 + X_4_8_6 + X_4_9_6 = 1
_C18: X_9_1_4 + X_9_1_5 + X_9_1_6 + X_9_2_4 + X_9_2_5 + X_9_2_6 + X_9_3_4
 + X_9_3_5 + X_9_3_6 = 1
_C180: X_1_4_6 + X_2_4_6 + X_3_4_6 + X_4_4_6 + X_5_4_6 + X_6_4_6 + X_7_4_6
 + X_8_4_6 + X_9_4_6 = 1
_C181: X_4_7_1 + X_4_7_2 + X_4_7_3 + X_4_7_4 + X_4_7_5 + X_4_7_6 + X_4_7_7
 + X_4_7_8 + X_4_7_9 = 1
_C182: X_4_1_7 + X_4_2_7 + X_4_3_7 + X_4_4_7 + X_4_5_7 + X_4_6_7 + X_4_7_7
 + X_4_8_7 + X_4_9_7 = 1
_C183: X_1_4_7 + X_2_4_7 + X_3_4_7 + X_4_4_7 + X_5_4_7 + X_6_4_7 + X_7_4_7
 + X_8_4_7 + X_9_4_7 = 1
_C184: X_4_8_1 + X_4_8_2 + X_4_8_3 + X_4_8_4 + X_4_8_5 + X_4_8_6 + X_4_8_7
 + X_4_8_8 + X_4_8_9 = 1
_C185: X_4_1_8 + X_4_2_8 + X_4_3_8 + X_4_4_8 + X_4_5_8 + X_4_6_8 + X_4_7_8
 + X_4_8_8 + X_4_9_8 = 1
_C186: X_1_4_8 + X_2_4_8 + X_3_4_8 + X_4_4_8 + X_5_4_8 + X_6_4_8 + X_7_4_8
 + X_8_4_8 + X_9_4_8 = 1
_C187: X_4_9_1 + X_4_9_2 + X_4_9_3 + X_4_9_4 + X_4_9_5 + X_4_9_6 + X_4_9_7
 + X_4_9_8 + X_4_9_9 = 1
_C188: X_4_1_9 + X_4_2_9 + X_4_3_9 + X_4_4_9 + X_4_5_9 + X_4_6_9 + X_4_7_9
 + X_4_8_9 + X_4_9_9 = 1
_C189: X_1_4_9 + X_2_4_9 + X_3_4_9 + X_4_4_9 + X_5_4_9 + X_6_4_9 + X_7_4_9
 + X_8_4_9 + X_9_4_9 = 1
_C19: X_1_1_7 + X_1_1_8 + X_1_1_9 + X_1_2_7 + X_1_2_8 + X_1_2_9 + X_1_3_7
 + X_1_3_8 + X_1_3_9 = 1
_C190: X_5_1_1 + X_5_1_2 + X_5_1_3 + X_5_1_4 + X_5_1_5 + X_5_1_6 + X_5_1_7
 + X_5_1_8 + X_5_1_9 = 1
_C191: X_5_1_1 + X_5_2_1 + X_5_3_1 + X_5_4_1 + X_5_5_1 + X_5_6_1 + X_5_7_1
 + X_5_8_1 + X_5_9_1 = 1
_C192: X_1_5_1 + X_2_5_1 + X_3_5_1 + X_4_5_1 + X_5_5_1 + X_6_5_1 + X_7_5_1
 + X_8_5_1 + X_9_5_1 = 1
_C193: X_5_2_1 + X_5_2_2 + X_5_2_3 + X_5_2_4 + X_5_2_5 + X_5_2_6 + X_5_2_7
 + X_5_2_8 + X_5_2_9 = 1
_C194: X_5_1_2 + X_5_2_2 + X_5_3_2 + X_5_4_2 + X_5_5_2 + X_5_6_2 + X_5_7_2
 + X_5_8_2 + X_5_9_2 = 1
_C195: X_1_5_2 + X_2_5_2 + X_3_5_2 + X_4_5_2 + X_5_5_2 + X_6_5_2 + X_7_5_2
 + X_8_5_2 + X_9_5_2 = 1
_C196: X_5_3_1 + X_5_3_2 + X_5_3_3 + X_5_3_4 + X_5_3_5 + X_5_3_6 + X_5_3_7
 + X_5_3_8 + X_5_3_9 = 1
_C197: X_5_1_3 + X_5_2_3 + X_5_3_3 + X_5_4_3 + X_5_5_3 + X_5_6_3 + X_5_7_3
 + X_5_8_3 + X_5_9_3 = 1
_C198: X_1_5_3 + X_2_5_3 + X_3_5_3 + X_4_5_3 + X_5_5_3 + X_6_5_3 + X_7_5_3
 + X_8_5_3 + X_9_5_3 = 1
_C199: X_5_4_1 + X_5_4_2 + X_5_4_3 + X_5_4_4 + X_5_4_5 + X_5_4_6 + X_5_4_7
 + X_5_4_8 + X_5_4_9 = 1
_C2: X_2_1_1 + X_2_1_2 + X_2_1_3 + X_2_2_1 + X_2_2_2 + X_2_2_3 + X_2_3_1
 + X_2_3_2 + X_2_3_3 = 1
_C20: X_2_1_7 + X_2_1_8 + X_2_1_9 + X_2_2_7 + X_2_2_8 + X_2_2_9 + X_2_3_7
 + X_2_3_8 + X_2_3_9 = 1
_C200: X_5_1_4 + X_5_2_4 + X_5_3_4 + X_5_4_4 + X_5_5_4 + X_5_6_4 + X_5_7_4
 + X_5_8_4 + X_5_9_4 = 1
_C201: X_1_5_4 + X_2_5_4 + X_3_5_4 + X_4_5_4 + X_5_5_4 + X_6_5_4 + X_7_5_4
 + X_8_5_4 + X_9_5_4 = 1
_C202: X_5_5_1 + X_5_5_2 + X_5_5_3 + X_5_5_4 + X_5_5_5 + X_5_5_6 + X_5_5_7
 + X_5_5_8 + X_5_5_9 = 1
_C203: X_5_1_5 + X_5_2_5 + X_5_3_5 + X_5_4_5 + X_5_5_5 + X_5_6_5 + X_5_7_5
 + X_5_8_5 + X_5_9_5 = 1
_C204: X_1_5_5 + X_2_5_5 + X_3_5_5 + X_4_5_5 + X_5_5_5 + X_6_5_5 + X_7_5_5
 + X_8_5_5 + X_9_5_5 = 1
_C205: X_5_6_1 + X_5_6_2 + X_5_6_3 + X_5_6_4 + X_5_6_5 + X_5_6_6 + X_5_6_7
 + X_5_6_8 + X_5_6_9 = 1
_C206: X_5_1_6 + X_5_2_6 + X_5_3_6 + X_5_4_6 + X_5_5_6 + X_5_6_6 + X_5_7_6
 + X_5_8_6 + X_5_9_6 = 1
_C207: X_1_5_6 + X_2_5_6 + X_3_5_6 + X_4_5_6 + X_5_5_6 + X_6_5_6 + X_7_5_6
 + X_8_5_6 + X_9_5_6 = 1
_C208: X_5_7_1 + X_5_7_2 + X_5_7_3 + X_5_7_4 + X_5_7_5 + X_5_7_6 + X_5_7_7
 + X_5_7_8 + X_5_7_9 = 1
_C209: X_5_1_7 + X_5_2_7 + X_5_3_7 + X_5_4_7 + X_5_5_7 + X_5_6_7 + X_5_7_7
 + X_5_8_7 + X_5_9_7 = 1
_C21: X_3_1_7 + X_3_1_8 + X_3_1_9 + X_3_2_7 + X_3_2_8 + X_3_2_9 + X_3_3_7
 + X_3_3_8 + X_3_3_9 = 1
_C210: X_1_5_7 + X_2_5_7 + X_3_5_7 + X_4_5_7 + X_5_5_7 + X_6_5_7 + X_7_5_7
 + X_8_5_7 + X_9_5_7 = 1
_C211: X_5_8_1 + X_5_8_2 + X_5_8_3 + X_5_8_4 + X_5_8_5 + X_5_8_6 + X_5_8_7
 + X_5_8_8 + X_5_8_9 = 1
_C212: X_5_1_8 + X_5_2_8 + X_5_3_8 + X_5_4_8 + X_5_5_8 + X_5_6_8 + X_5_7_8
 + X_5_8_8 + X_5_9_8 = 1
_C213: X_1_5_8 + X_2_5_8 + X_3_5_8 + X_4_5_8 + X_5_5_8 + X_6_5_8 + X_7_5_8
 + X_8_5_8 + X_9_5_8 = 1
_C214: X_5_9_1 + X_5_9_2 + X_5_9_3 + X_5_9_4 + X_5_9_5 + X_5_9_6 + X_5_9_7
 + X_5_9_8 + X_5_9_9 = 1
_C215: X_5_1_9 + X_5_2_9 + X_5_3_9 + X_5_4_9 + X_5_5_9 + X_5_6_9 + X_5_7_9
 + X_5_8_9 + X_5_9_9 = 1
_C216: X_1_5_9 + X_2_5_9 + X_3_5_9 + X_4_5_9 + X_5_5_9 + X_6_5_9 + X_7_5_9
 + X_8_5_9 + X_9_5_9 = 1
_C217: X_6_1_1 + X_6_1_2 + X_6_1_3 + X_6_1_4 + X_6_1_5 + X_6_1_6 + X_6_1_7
 + X_6_1_8 + X_6_1_9 = 1
_C218: X_6_1_1 + X_6_2_1 + X_6_3_1 + X_6_4_1 + X_6_5_1 + X_6_6_1 + X_6_7_1
 + X_6_8_1 + X_6_9_1 = 1
_C219: X_1_6_1 + X_2_6_1 + X_3_6_1 + X_4_6_1 + X_5_6_1 + X_6_6_1 + X_7_6_1
 + X_8_6_1 + X_9_6_1 = 1
_C22: X_4_1_7 + X_4_1_8 + X_4_1_9 + X_4_2_7 + X_4_2_8 + X_4_2_9 + X_4_3_7
 + X_4_3_8 + X_4_3_9 = 1
_C220: X_6_2_1 + X_6_2_2 + X_6_2_3 + X_6_2_4 + X_6_2_5 + X_6_2_6 + X_6_2_7
 + X_6_2_8 + X_6_2_9 = 1
_C221: X_6_1_2 + X_6_2_2 + X_6_3_2 + X_6_4_2 + X_6_5_2 + X_6_6_2 + X_6_7_2
 + X_6_8_2 + X_6_9_2 = 1
_C222: X_1_6_2 + X_2_6_2 + X_3_6_2 + X_4_6_2 + X_5_6_2 + X_6_6_2 + X_7_6_2
 + X_8_6_2 + X_9_6_2 = 1
_C223: X_6_3_1 + X_6_3_2 + X_6_3_3 + X_6_3_4 + X_6_3_5 + X_6_3_6 + X_6_3_7
 + X_6_3_8 + X_6_3_9 = 1
_C224: X_6_1_3 + X_6_2_3 + X_6_3_3 + X_6_4_3 + X_6_5_3 + X_6_6_3 + X_6_7_3
 + X_6_8_3 + X_6_9_3 = 1
_C225: X_1_6_3 + X_2_6_3 + X_3_6_3 + X_4_6_3 + X_5_6_3 + X_6_6_3 + X_7_6_3
 + X_8_6_3 + X_9_6_3 = 1
_C226: X_6_4_1 + X_6_4_2 + X_6_4_3 + X_6_4_4 + X_6_4_5 + X_6_4_6 + X_6_4_7
 + X_6_4_8 + X_6_4_9 = 1
_C227: X_6_1_4 + X_6_2_4 + X_6_3_4 + X_6_4_4 + X_6_5_4 + X_6_6_4 + X_6_7_4
 + X_6_8_4 + X_6_9_4 = 1
_C228: X_1_6_4 + X_2_6_4 + X_3_6_4 + X_4_6_4 + X_5_6_4 + X_6_6_4 + X_7_6_4
 + X_8_6_4 + X_9_6_4 = 1
_C229: X_6_5_1 + X_6_5_2 + X_6_5_3 + X_6_5_4 + X_6_5_5 + X_6_5_6 + X_6_5_7
 + X_6_5_8 + X_6_5_9 = 1
_C23: X_5_1_7 + X_5_1_8 + X_5_1_9 + X_5_2_7 + X_5_2_8 + X_5_2_9 + X_5_3_7
 + X_5_3_8 + X_5_3_9 = 1
_C230: X_6_1_5 + X_6_2_5 + X_6_3_5 + X_6_4_5 + X_6_5_5 + X_6_6_5 + X_6_7_5
 + X_6_8_5 + X_6_9_5 = 1
_C231: X_1_6_5 + X_2_6_5 + X_3_6_5 + X_4_6_5 + X_5_6_5 + X_6_6_5 + X_7_6_5
 + X_8_6_5 + X_9_6_5 = 1
_C232: X_6_6_1 + X_6_6_2 + X_6_6_3 + X_6_6_4 + X_6_6_5 + X_6_6_6 + X_6_6_7
 + X_6_6_8 + X_6_6_9 = 1
_C233: X_6_1_6 + X_6_2_6 + X_6_3_6 + X_6_4_6 + X_6_5_6 + X_6_6_6 + X_6_7_6
 + X_6_8_6 + X_6_9_6 = 1
_C234: X_1_6_6 + X_2_6_6 + X_3_6_6 + X_4_6_6 + X_5_6_6 + X_6_6_6 + X_7_6_6
 + X_8_6_6 + X_9_6_6 = 1
_C235: X_6_7_1 + X_6_7_2 + X_6_7_3 + X_6_7_4 + X_6_7_5 + X_6_7_6 + X_6_7_7
 + X_6_7_8 + X_6_7_9 = 1
_C236: X_6_1_7 + X_6_2_7 + X_6_3_7 + X_6_4_7 + X_6_5_7 + X_6_6_7 + X_6_7_7
 + X_6_8_7 + X_6_9_7 = 1
_C237: X_1_6_7 + X_2_6_7 + X_3_6_7 + X_4_6_7 + X_5_6_7 + X_6_6_7 + X_7_6_7
 + X_8_6_7 + X_9_6_7 = 1
_C238: X_6_8_1 + X_6_8_2 + X_6_8_3 + X_6_8_4 + X_6_8_5 + X_6_8_6 + X_6_8_7
 + X_6_8_8 + X_6_8_9 = 1
_C239: X_6_1_8 + X_6_2_8 + X_6_3_8 + X_6_4_8 + X_6_5_8 + X_6_6_8 + X_6_7_8
 + X_6_8_8 + X_6_9_8 = 1
_C24: X_6_1_7 + X_6_1_8 + X_6_1_9 + X_6_2_7 + X_6_2_8 + X_6_2_9 + X_6_3_7
 + X_6_3_8 + X_6_3_9 = 1
_C240: X_1_6_8 + X_2_6_8 + X_3_6_8 + X_4_6_8 + X_5_6_8 + X_6_6_8 + X_7_6_8
 + X_8_6_8 + X_9_6_8 = 1
_C241: X_6_9_1 + X_6_9_2 + X_6_9_3 + X_6_9_4 + X_6_9_5 + X_6_9_6 + X_6_9_7
 + X_6_9_8 + X_6_9_9 = 1
_C242: X_6_1_9 + X_6_2_9 + X_6_3_9 + X_6_4_9 + X_6_5_9 + X_6_6_9 + X_6_7_9
 + X_6_8_9 + X_6_9_9 = 1
_C243: X_1_6_9 + X_2_6_9 + X_3_6_9 + X_4_6_9 + X_5_6_9 + X_6_6_9 + X_7_6_9
 + X_8_6_9 + X_9_6_9 = 1
_C244: X_7_1_1 + X_7_1_2 + X_7_1_3 + X_7_1_4 + X_7_1_5 + X_7_1_6 + X_7_1_7
 + X_7_1_8 + X_7_1_9 = 1
_C245: X_7_1_1 + X_7_2_1 + X_7_3_1 + X_7_4_1 + X_7_5_1 + X_7_6_1 + X_7_7_1
 + X_7_8_1 + X_7_9_1 = 1
_C246: X_1_7_1 + X_2_7_1 + X_3_7_1 + X_4_7_1 + X_5_7_1 + X_6_7_1 + X_7_7_1
 + X_8_7_1 + X_9_7_1 = 1
_C247: X_7_2_1 + X_7_2_2 + X_7_2_3 + X_7_2_4 + X_7_2_5 + X_7_2_6 + X_7_2_7
 + X_7_2_8 + X_7_2_9 = 1
_C248: X_7_1_2 + X_7_2_2 + X_7_3_2 + X_7_4_2 + X_7_5_2 + X_7_6_2 + X_7_7_2
 + X_7_8_2 + X_7_9_2 = 1
_C249: X_1_7_2 + X_2_7_2 + X_3_7_2 + X_4_7_2 + X_5_7_2 + X_6_7_2 + X_7_7_2
 + X_8_7_2 + X_9_7_2 = 1
_C25: X_7_1_7 + X_7_1_8 + X_7_1_9 + X_7_2_7 + X_7_2_8 + X_7_2_9 + X_7_3_7
 + X_7_3_8 + X_7_3_9 = 1
_C250: X_7_3_1 + X_7_3_2 + X_7_3_3 + X_7_3_4 + X_7_3_5 + X_7_3_6 + X_7_3_7
 + X_7_3_8 + X_7_3_9 = 1
_C251: X_7_1_3 + X_7_2_3 + X_7_3_3 + X_7_4_3 + X_7_5_3 + X_7_6_3 + X_7_7_3
 + X_7_8_3 + X_7_9_3 = 1
_C252: X_1_7_3 + X_2_7_3 + X_3_7_3 + X_4_7_3 + X_5_7_3 + X_6_7_3 + X_7_7_3
 + X_8_7_3 + X_9_7_3 = 1
_C253: X_7_4_1 + X_7_4_2 + X_7_4_3 + X_7_4_4 + X_7_4_5 + X_7_4_6 + X_7_4_7
 + X_7_4_8 + X_7_4_9 = 1
_C254: X_7_1_4 + X_7_2_4 + X_7_3_4 + X_7_4_4 + X_7_5_4 + X_7_6_4 + X_7_7_4
 + X_7_8_4 + X_7_9_4 = 1
_C255: X_1_7_4 + X_2_7_4 + X_3_7_4 + X_4_7_4 + X_5_7_4 + X_6_7_4 + X_7_7_4
 + X_8_7_4 + X_9_7_4 = 1
_C256: X_7_5_1 + X_7_5_2 + X_7_5_3 + X_7_5_4 + X_7_5_5 + X_7_5_6 + X_7_5_7
 + X_7_5_8 + X_7_5_9 = 1
_C257: X_7_1_5 + X_7_2_5 + X_7_3_5 + X_7_4_5 + X_7_5_5 + X_7_6_5 + X_7_7_5
 + X_7_8_5 + X_7_9_5 = 1
_C258: X_1_7_5 + X_2_7_5 + X_3_7_5 + X_4_7_5 + X_5_7_5 + X_6_7_5 + X_7_7_5
 + X_8_7_5 + X_9_7_5 = 1
_C259: X_7_6_1 + X_7_6_2 + X_7_6_3 + X_7_6_4 + X_7_6_5 + X_7_6_6 + X_7_6_7
 + X_7_6_8 + X_7_6_9 = 1
_C26: X_8_1_7 + X_8_1_8 + X_8_1_9 + X_8_2_7 + X_8_2_8 + X_8_2_9 + X_8_3_7
 + X_8_3_8 + X_8_3_9 = 1
_C260: X_7_1_6 + X_7_2_6 + X_7_3_6 + X_7_4_6 + X_7_5_6 + X_7_6_6 + X_7_7_6
 + X_7_8_6 + X_7_9_6 = 1
_C261: X_1_7_6 + X_2_7_6 + X_3_7_6 + X_4_7_6 + X_5_7_6 + X_6_7_6 + X_7_7_6
 + X_8_7_6 + X_9_7_6 = 1
_C262: X_7_7_1 + X_7_7_2 + X_7_7_3 + X_7_7_4 + X_7_7_5 + X_7_7_6 + X_7_7_7
 + X_7_7_8 + X_7_7_9 = 1
_C263: X_7_1_7 + X_7_2_7 + X_7_3_7 + X_7_4_7 + X_7_5_7 + X_7_6_7 + X_7_7_7
 + X_7_8_7 + X_7_9_7 = 1
_C264: X_1_7_7 + X_2_7_7 + X_3_7_7 + X_4_7_7 + X_5_7_7 + X_6_7_7 + X_7_7_7
 + X_8_7_7 + X_9_7_7 = 1
_C265: X_7_8_1 + X_7_8_2 + X_7_8_3 + X_7_8_4 + X_7_8_5 + X_7_8_6 + X_7_8_7
 + X_7_8_8 + X_7_8_9 = 1
_C266: X_7_1_8 + X_7_2_8 + X_7_3_8 + X_7_4_8 + X_7_5_8 + X_7_6_8 + X_7_7_8
 + X_7_8_8 + X_7_9_8 = 1
_C267: X_1_7_8 + X_2_7_8 + X_3_7_8 + X_4_7_8 + X_5_7_8 + X_6_7_8 + X_7_7_8
 + X_8_7_8 + X_9_7_8 = 1
_C268: X_7_9_1 + X_7_9_2 + X_7_9_3 + X_7_9_4 + X_7_9_5 + X_7_9_6 + X_7_9_7
 + X_7_9_8 + X_7_9_9 = 1
_C269: X_7_1_9 + X_7_2_9 + X_7_3_9 + X_7_4_9 + X_7_5_9 + X_7_6_9 + X_7_7_9
 + X_7_8_9 + X_7_9_9 = 1
_C27: X_9_1_7 + X_9_1_8 + X_9_1_9 + X_9_2_7 + X_9_2_8 + X_9_2_9 + X_9_3_7
 + X_9_3_8 + X_9_3_9 = 1
_C270: X_1_7_9 + X_2_7_9 + X_3_7_9 + X_4_7_9 + X_5_7_9 + X_6_7_9 + X_7_7_9
 + X_8_7_9 + X_9_7_9 = 1
_C271: X_8_1_1 + X_8_1_2 + X_8_1_3 + X_8_1_4 + X_8_1_5 + X_8_1_6 + X_8_1_7
 + X_8_1_8 + X_8_1_9 = 1
_C272: X_8_1_1 + X_8_2_1 + X_8_3_1 + X_8_4_1 + X_8_5_1 + X_8_6_1 + X_8_7_1
 + X_8_8_1 + X_8_9_1 = 1
_C273: X_1_8_1 + X_2_8_1 + X_3_8_1 + X_4_8_1 + X_5_8_1 + X_6_8_1 + X_7_8_1
 + X_8_8_1 + X_9_8_1 = 1
_C274: X_8_2_1 + X_8_2_2 + X_8_2_3 + X_8_2_4 + X_8_2_5 + X_8_2_6 + X_8_2_7
 + X_8_2_8 + X_8_2_9 = 1
_C275: X_8_1_2 + X_8_2_2 + X_8_3_2 + X_8_4_2 + X_8_5_2 + X_8_6_2 + X_8_7_2
 + X_8_8_2 + X_8_9_2 = 1
_C276: X_1_8_2 + X_2_8_2 + X_3_8_2 + X_4_8_2 + X_5_8_2 + X_6_8_2 + X_7_8_2
 + X_8_8_2 + X_9_8_2 = 1
_C277: X_8_3_1 + X_8_3_2 + X_8_3_3 + X_8_3_4 + X_8_3_5 + X_8_3_6 + X_8_3_7
 + X_8_3_8 + X_8_3_9 = 1
_C278: X_8_1_3 + X_8_2_3 + X_8_3_3 + X_8_4_3 + X_8_5_3 + X_8_6_3 + X_8_7_3
 + X_8_8_3 + X_8_9_3 = 1
_C279: X_1_8_3 + X_2_8_3 + X_3_8_3 + X_4_8_3 + X_5_8_3 + X_6_8_3 + X_7_8_3
 + X_8_8_3 + X_9_8_3 = 1
_C28: X_1_4_1 + X_1_4_2 + X_1_4_3 + X_1_5_1 + X_1_5_2 + X_1_5_3 + X_1_6_1
 + X_1_6_2 + X_1_6_3 = 1
_C280: X_8_4_1 + X_8_4_2 + X_8_4_3 + X_8_4_4 + X_8_4_5 + X_8_4_6 + X_8_4_7
 + X_8_4_8 + X_8_4_9 = 1
_C281: X_8_1_4 + X_8_2_4 + X_8_3_4 + X_8_4_4 + X_8_5_4 + X_8_6_4 + X_8_7_4
 + X_8_8_4 + X_8_9_4 = 1
_C282: X_1_8_4 + X_2_8_4 + X_3_8_4 + X_4_8_4 + X_5_8_4 + X_6_8_4 + X_7_8_4
 + X_8_8_4 + X_9_8_4 = 1
_C283: X_8_5_1 + X_8_5_2 + X_8_5_3 + X_8_5_4 + X_8_5_5 + X_8_5_6 + X_8_5_7
 + X_8_5_8 + X_8_5_9 = 1
_C284: X_8_1_5 + X_8_2_5 + X_8_3_5 + X_8_4_5 + X_8_5_5 + X_8_6_5 + X_8_7_5
 + X_8_8_5 + X_8_9_5 = 1
_C285: X_1_8_5 + X_2_8_5 + X_3_8_5 + X_4_8_5 + X_5_8_5 + X_6_8_5 + X_7_8_5
 + X_8_8_5 + X_9_8_5 = 1
_C286: X_8_6_1 + X_8_6_2 + X_8_6_3 + X_8_6_4 + X_8_6_5 + X_8_6_6 + X_8_6_7
 + X_8_6_8 + X_8_6_9 = 1
_C287: X_8_1_6 + X_8_2_6 + X_8_3_6 + X_8_4_6 + X_8_5_6 + X_8_6_6 + X_8_7_6
 + X_8_8_6 + X_8_9_6 = 1
_C288: X_1_8_6 + X_2_8_6 + X_3_8_6 + X_4_8_6 + X_5_8_6 + X_6_8_6 + X_7_8_6
 + X_8_8_6 + X_9_8_6 = 1
_C289: X_8_7_1 + X_8_7_2 + X_8_7_3 + X_8_7_4 + X_8_7_5 + X_8_7_6 + X_8_7_7
 + X_8_7_8 + X_8_7_9 = 1
_C29: X_2_4_1 + X_2_4_2 + X_2_4_3 + X_2_5_1 + X_2_5_2 + X_2_5_3 + X_2_6_1
 + X_2_6_2 + X_2_6_3 = 1
_C290: X_8_1_7 + X_8_2_7 + X_8_3_7 + X_8_4_7 + X_8_5_7 + X_8_6_7 + X_8_7_7
 + X_8_8_7 + X_8_9_7 = 1
_C291: X_1_8_7 + X_2_8_7 + X_3_8_7 + X_4_8_7 + X_5_8_7 + X_6_8_7 + X_7_8_7
 + X_8_8_7 + X_9_8_7 = 1
_C292: X_8_8_1 + X_8_8_2 + X_8_8_3 + X_8_8_4 + X_8_8_5 + X_8_8_6 + X_8_8_7
 + X_8_8_8 + X_8_8_9 = 1
_C293: X_8_1_8 + X_8_2_8 + X_8_3_8 + X_8_4_8 + X_8_5_8 + X_8_6_8 + X_8_7_8
 + X_8_8_8 + X_8_9_8 = 1
_C294: X_1_8_8 + X_2_8_8 + X_3_8_8 + X_4_8_8 + X_5_8_8 + X_6_8_8 + X_7_8_8
 + X_8_8_8 + X_9_8_8 = 1
_C295: X_8_9_1 + X_8_9_2 + X_8_9_3 + X_8_9_4 + X_8_9_5 + X_8_9_6 + X_8_9_7
 + X_8_9_8 + X_8_9_9 = 1
_C296: X_8_1_9 + X_8_2_9 + X_8_3_9 + X_8_4_9 + X_8_5_9 + X_8_6_9 + X_8_7_9
 + X_8_8_9 + X_8_9_9 = 1
_C297: X_1_8_9 + X_2_8_9 + X_3_8_9 + X_4_8_9 + X_5_8_9 + X_6_8_9 + X_7_8_9
 + X_8_8_9 + X_9_8_9 = 1
_C298: X_9_1_1 + X_9_1_2 + X_9_1_3 + X_9_1_4 + X_9_1_5 + X_9_1_6 + X_9_1_7
 + X_9_1_8 + X_9_1_9 = 1
_C299: X_9_1_1 + X_9_2_1 + X_9_3_1 + X_9_4_1 + X_9_5_1 + X_9_6_1 + X_9_7_1
 + X_9_8_1 + X_9_9_1 = 1
_C3: X_3_1_1 + X_3_1_2 + X_3_1_3 + X_3_2_1 + X_3_2_2 + X_3_2_3 + X_3_3_1
 + X_3_3_2 + X_3_3_3 = 1
_C30: X_3_4_1 + X_3_4_2 + X_3_4_3 + X_3_5_1 + X_3_5_2 + X_3_5_3 + X_3_6_1
 + X_3_6_2 + X_3_6_3 = 1
_C300: X_1_9_1 + X_2_9_1 + X_3_9_1 + X_4_9_1 + X_5_9_1 + X_6_9_1 + X_7_9_1
 + X_8_9_1 + X_9_9_1 = 1
_C301: X_9_2_1 + X_9_2_2 + X_9_2_3 + X_9_2_4 + X_9_2_5 + X_9_2_6 + X_9_2_7
 + X_9_2_8 + X_9_2_9 = 1
_C302: X_9_1_2 + X_9_2_2 + X_9_3_2 + X_9_4_2 + X_9_5_2 + X_9_6_2 + X_9_7_2
 + X_9_8_2 + X_9_9_2 = 1
_C303: X_1_9_2 + X_2_9_2 + X_3_9_2 + X_4_9_2 + X_5_9_2 + X_6_9_2 + X_7_9_2
 + X_8_9_2 + X_9_9_2 = 1
_C304: X_9_3_1 + X_9_3_2 + X_9_3_3 + X_9_3_4 + X_9_3_5 + X_9_3_6 + X_9_3_7
 + X_9_3_8 + X_9_3_9 = 1
_C305: X_9_1_3 + X_9_2_3 + X_9_3_3 + X_9_4_3 + X_9_5_3 + X_9_6_3 + X_9_7_3
 + X_9_8_3 + X_9_9_3 = 1
_C306: X_1_9_3 + X_2_9_3 + X_3_9_3 + X_4_9_3 + X_5_9_3 + X_6_9_3 + X_7_9_3
 + X_8_9_3 + X_9_9_3 = 1
_C307: X_9_4_1 + X_9_4_2 + X_9_4_3 + X_9_4_4 + X_9_4_5 + X_9_4_6 + X_9_4_7
 + X_9_4_8 + X_9_4_9 = 1
_C308: X_9_1_4 + X_9_2_4 + X_9_3_4 + X_9_4_4 + X_9_5_4 + X_9_6_4 + X_9_7_4
 + X_9_8_4 + X_9_9_4 = 1
_C309: X_1_9_4 + X_2_9_4 + X_3_9_4 + X_4_9_4 + X_5_9_4 + X_6_9_4 + X_7_9_4
 + X_8_9_4 + X_9_9_4 = 1
_C31: X_4_4_1 + X_4_4_2 + X_4_4_3 + X_4_5_1 + X_4_5_2 + X_4_5_3 + X_4_6_1
 + X_4_6_2 + X_4_6_3 = 1
_C310: X_9_5_1 + X_9_5_2 + X_9_5_3 + X_9_5_4 + X_9_5_5 + X_9_5_6 + X_9_5_7
 + X_9_5_8 + X_9_5_9 = 1
_C311: X_9_1_5 + X_9_2_5 + X_9_3_5 + X_9_4_5 + X_9_5_5 + X_9_6_5 + X_9_7_5
 + X_9_8_5 + X_9_9_5 = 1
_C312: X_1_9_5 + X_2_9_5 + X_3_9_5 + X_4_9_5 + X_5_9_5 + X_6_9_5 + X_7_9_5
 + X_8_9_5 + X_9_9_5 = 1
_C313: X_9_6_1 + X_9_6_2 + X_9_6_3 + X_9_6_4 + X_9_6_5 + X_9_6_6 + X_9_6_7
 + X_9_6_8 + X_9_6_9 = 1
_C314: X_9_1_6 + X_9_2_6 + X_9_3_6 + X_9_4_6 + X_9_5_6 + X_9_6_6 + X_9_7_6
 + X_9_8_6 + X_9_9_6 = 1
_C315: X_1_9_6 + X_2_9_6 + X_3_9_6 + X_4_9_6 + X_5_9_6 + X_6_9_6 + X_7_9_6
 + X_8_9_6 + X_9_9_6 = 1
_C316: X_9_7_1 + X_9_7_2 + X_9_7_3 + X_9_7_4 + X_9_7_5 + X_9_7_6 + X_9_7_7
 + X_9_7_8 + X_9_7_9 = 1
_C317: X_9_1_7 + X_9_2_7 + X_9_3_7 + X_9_4_7 + X_9_5_7 + X_9_6_7 + X_9_7_7
 + X_9_8_7 + X_9_9_7 = 1
_C318: X_1_9_7 + X_2_9_7 + X_3_9_7 + X_4_9_7 + X_5_9_7 + X_6_9_7 + X_7_9_7
 + X_8_9_7 + X_9_9_7 = 1
_C319: X_9_8_1 + X_9_8_2 + X_9_8_3 + X_9_8_4 + X_9_8_5 + X_9_8_6 + X_9_8_7
 + X_9_8_8 + X_9_8_9 = 1
_C32: X_5_4_1 + X_5_4_2 + X_5_4_3 + X_5_5_1 + X_5_5_2 + X_5_5_3 + X_5_6_1
 + X_5_6_2 + X_5_6_3 = 1
_C320: X_9_1_8 + X_9_2_8 + X_9_3_8 + X_9_4_8 + X_9_5_8 + X_9_6_8 + X_9_7_8
 + X_9_8_8 + X_9_9_8 = 1
_C321: X_1_9_8 + X_2_9_8 + X_3_9_8 + X_4_9_8 + X_5_9_8 + X_6_9_8 + X_7_9_8
 + X_8_9_8 + X_9_9_8 = 1
_C322: X_9_9_1 + X_9_9_2 + X_9_9_3 + X_9_9_4 + X_9_9_5 + X_9_9_6 + X_9_9_7
 + X_9_9_8 + X_9_9_9 = 1
_C323: X_9_1_9 + X_9_2_9 + X_9_3_9 + X_9_4_9 + X_9_5_9 + X_9_6_9 + X_9_7_9
 + X_9_8_9 + X_9_9_9 = 1
_C324: X_1_9_9 + X_2_9_9 + X_3_9_9 + X_4_9_9 + X_5_9_9 + X_6_9_9 + X_7_9_9
 + X_8_9_9 + X_9_9_9 = 1
_C325: X_5_1_1 = 1
_C326: X_6_2_1 = 1
_C327: X_8_4_2 = 1
_C328: X_4_5_1 = 1
_C33: X_6_4_1 + X_6_4_2 + X_6_4_3 + X_6_5_1 + X_6_5_2 + X_6_5_3 + X_6_6_1
 + X_6_6_2 + X_6_6_3 = 1
_C34: X_7_4_1 + X_7_4_2 + X_7_4_3 + X_7_5_1 + X_7_5_2 + X_7_5_3 + X_7_6_1
 + X_7_6_2 + X_7_6_3 = 1
_C35: X_8_4_1 + X_8_4_2 + X_8_4_3 + X_8_5_1 + X_8_5_2 + X_8_5_3 + X_8_6_1
 + X_8_6_2 + X_8_6_3 = 1
_C36: X_9_4_1 + X_9_4_2 + X_9_4_3 + X_9_5_1 + X_9_5_2 + X_9_5_3 + X_9_6_1
 + X_9_6_2 + X_9_6_3 = 1
_C37: X_1_4_4 + X_1_4_5 + X_1_4_6 + X_1_5_4 + X_1_5_5 + X_1_5_6 + X_1_6_4
 + X_1_6_5 + X_1_6_6 = 1
_C38: X_2_4_4 + X_2_4_5 + X_2_4_6 + X_2_5_4 + X_2_5_5 + X_2_5_6 + X_2_6_4
 + X_2_6_5 + X_2_6_6 = 1
_C39: X_3_4_4 + X_3_4_5 + X_3_4_6 + X_3_5_4 + X_3_5_5 + X_3_5_6 + X_3_6_4
 + X_3_6_5 + X_3_6_6 = 1
_C4: X_4_1_1 + X_4_1_2 + X_4_1_3 + X_4_2_1 + X_4_2_2 + X_4_2_3 + X_4_3_1
 + X_4_3_2 + X_4_3_3 = 1
_C40: X_4_4_4 + X_4_4_5 + X_4_4_6 + X_4_5_4 + X_4_5_5 + X_4_5_6 + X_4_6_4
 + X_4_6_5 + X_4_6_6 = 1
_C41: X_5_4_4 + X_5_4_5 + X_5_4_6 + X_5_5_4 + X_5_5_5 + X_5_5_6 + X_5_6_4
 + X_5_6_5 + X_5_6_6 = 1
_C42: X_6_4_4 + X_6_4_5 + X_6_4_6 + X_6_5_4 + X_6_5_5 + X_6_5_6 + X_6_6_4
 + X_6_6_5 + X_6_6_6 = 1
_C43: X_7_4_4 + X_7_4_5 + X_7_4_6 + X_7_5_4 + X_7_5_5 + X_7_5_6 + X_7_6_4
 + X_7_6_5 + X_7_6_6 = 1
_C44: X_8_4_4 + X_8_4_5 + X_8_4_6 + X_8_5_4 + X_8_5_5 + X_8_5_6 + X_8_6_4
 + X_8_6_5 + X_8_6_6 = 1
_C45: X_9_4_4 + X_9_4_5 + X_9_4_6 + X_9_5_4 + X_9_5_5 + X_9_5_6 + X_9_6_4
 + X_9_6_5 + X_9_6_6 = 1
_C46: X_1_4_7 + X_1_4_8 + X_1_4_9 + X_1_5_7 + X_1_5_8 + X_1_5_9 + X_1_6_7
 + X_1_6_8 + X_1_6_9 = 1
_C47: X_2_4_7 + X_2_4_8 + X_2_4_9 + X_2_5_7 + X_2_5_8 + X_2_5_9 + X_2_6_7
 + X_2_6_8 + X_2_6_9 = 1
_C48: X_3_4_7 + X_3_4_8 + X_3_4_9 + X_3_5_7 + X_3_5_8 + X_3_5_9 + X_3_6_7
 + X_3_6_8 + X_3_6_9 = 1
_C49: X_4_4_7 + X_4_4_8 + X_4_4_9 + X_4_5_7 + X_4_5_8 + X_4_5_9 + X_4_6_7
 + X_4_6_8 + X_4_6_9 = 1
_C5: X_5_1_1 + X_5_1_2 + X_5_1_3 + X_5_2_1 + X_5_2_2 + X_5_2_3 + X_5_3_1
 + X_5_3_2 + X_5_3_3 = 1
_C50: X_5_4_7 + X_5_4_8 + X_5_4_9 + X_5_5_7 + X_5_5_8 + X_5_5_9 + X_5_6_7
 + X_5_6_8 + X_5_6_9 = 1
_C51: X_6_4_7 + X_6_4_8 + X_6_4_9 + X_6_5_7 + X_6_5_8 + X_6_5_9 + X_6_6_7
 + X_6_6_8 + X_6_6_9 = 1
_C52: X_7_4_7 + X_7_4_8 + X_7_4_9 + X_7_5_7 + X_7_5_8 + X_7_5_9 + X_7_6_7
 + X_7_6_8 + X_7_6_9 = 1
_C53: X_8_4_7 + X_8_4_8 + X_8_4_9 + X_8_5_7 + X_8_5_8 + X_8_5_9 + X_8_6_7
 + X_8_6_8 + X_8_6_9 = 1
_C54: X_9_4_7 + X_9_4_8 + X_9_4_9 + X_9_5_7 + X_9_5_8 + X_9_5_9 + X_9_6_7
 + X_9_6_8 + X_9_6_9 = 1
_C55: X_1_7_1 + X_1_7_2 + X_1_7_3 + X_1_8_1 + X_1_8_2 + X_1_8_3 + X_1_9_1
 + X_1_9_2 + X_1_9_3 = 1
_C56: X_2_7_1 + X_2_7_2 + X_2_7_3 + X_2_8_1 + X_2_8_2 + X_2_8_3 + X_2_9_1
 + X_2_9_2 + X_2_9_3 = 1
_C57: X_3_7_1 + X_3_7_2 + X_3_7_3 + X_3_8_1 + X_3_8_2 + X_3_8_3 + X_3_9_1
 + X_3_9_2 + X_3_9_3 = 1
_C58: X_4_7_1 + X_4_7_2 + X_4_7_3 + X_4_8_1 + X_4_8_2 + X_4_8_3 + X_4_9_1
 + X_4_9_2 + X_4_9_3 = 1
_C59: X_5_7_1 + X_5_7_2 + X_5_7_3 + X_5_8_1 + X_5_8_2 + X_5_8_3 + X_5_9_1
 + X_5_9_2 + X_5_9_3 = 1
_C6: X_6_1_1 + X_6_1_2 + X_6_1_3 + X_6_2_1 + X_6_2_2 + X_6_2_3 + X_6_3_1
 + X_6_3_2 + X_6_3_3 = 1
_C60: X_6_7_1 + X_6_7_2 + X_6_7_3 + X_6_8_1 + X_6_8_2 + X_6_8_3 + X_6_9_1
 + X_6_9_2 + X_6_9_3 = 1
_C61: X_7_7_1 + X_7_7_2 + X_7_7_3 + X_7_8_1 + X_7_8_2 + X_7_8_3 + X_7_9_1
 + X_7_9_2 + X_7_9_3 = 1
_C62: X_8_7_1 + X_8_7_2 + X_8_7_3 + X_8_8_1 + X_8_8_2 + X_8_8_3 + X_8_9_1
 + X_8_9_2 + X_8_9_3 = 1
_C63: X_9_7_1 + X_9_7_2 + X_9_7_3 + X_9_8_1 + X_9_8_2 + X_9_8_3 + X_9_9_1
 + X_9_9_2 + X_9_9_3 = 1
_C64: X_1_7_4 + X_1_7_5 + X_1_7_6 + X_1_8_4 + X_1_8_5 + X_1_8_6 + X_1_9_4
 + X_1_9_5 + X_1_9_6 = 1
_C65: X_2_7_4 + X_2_7_5 + X_2_7_6 + X_2_8_4 + X_2_8_5 + X_2_8_6 + X_2_9_4
 + X_2_9_5 + X_2_9_6 = 1
_C66: X_3_7_4 + X_3_7_5 + X_3_7_6 + X_3_8_4 + X_3_8_5 + X_3_8_6 + X_3_9_4
 + X_3_9_5 + X_3_9_6 = 1
_C67: X_4_7_4 + X_4_7_5 + X_4_7_6 + X_4_8_4 + X_4_8_5 + X_4_8_6 + X_4_9_4
 + X_4_9_5 + X_4_9_6 = 1
_C68: X_5_7_4 + X_5_7_5 + X_5_7_6 + X_5_8_4 + X_5_8_5 + X_5_8_6 + X_5_9_4
 + X_5_9_5 + X_5_9_6 = 1
_C69: X_6_7_4 + X_6_7_5 + X_6_7_6 + X_6_8_4 + X_6_8_5 + X_6_8_6 + X_6_9_4
 + X_6_9_5 + X_6_9_6 = 1
_C7: X_7_1_1 + X_7_1_2 + X_7_1_3 + X_7_2_1 + X_7_2_2 + X_7_2_3 + X_7_3_1
 + X_7_3_2 + X_7_3_3 = 1
_C70: X_7_7_4 + X_7_7_5 + X_7_7_6 + X_7_8_4 + X_7_8_5 + X_7_8_6 + X_7_9_4
 + X_7_9_5 + X_7_9_6 = 1
_C71: X_8_7_4 + X_8_7_5 + X_8_7_6 + X_8_8_4 + X_8_8_5 + X_8_8_6 + X_8_9_4
 + X_8_9_5 + X_8_9_6 = 1
_C72: X_9_7_4 + X_9_7_5 + X_9_7_6 + X_9_8_4 + X_9_8_5 + X_9_8_6 + X_9_9_4
 + X_9_9_5 + X_9_9_6 = 1
_C73: X_1_7_7 + X_1_7_8 + X_1_7_9 + X_1_8_7 + X_1_8_8 + X_1_8_9 + X_1_9_7
 + X_1_9_8 + X_1_9_9 = 1
_C74: X_2_7_7 + X_2_7_8 + X_2_7_9 + X_2_8_7 + X_2_8_8 + X_2_8_9 + X_2_9_7
 + X_2_9_8 + X_2_9_9 = 1
_C75: X_3_7_7 + X_3_7_8 + X_3_7_9 + X_3_8_7 + X_3_8_8 + X_3_8_9 + X_3_9_7
 + X_3_9_8 + X_3_9_9 = 1
_C76: X_4_7_7 + X_4_7_8 + X_4_7_9 + X_4_8_7 + X_4_8_8 + X_4_8_9 + X_4_9_7
 + X_4_9_8 + X_4_9_9 = 1
_C77: X_5_7_7 + X_5_7_8 + X_5_7_9 + X_5_8_7 + X_5_8_8 + X_5_8_9 + X_5_9_7
 + X_5_9_8 + X_5_9_9 = 1
_C78: X_6_7_7 + X_6_7_8 + X_6_7_9 + X_6_8_7 + X_6_8_8 + X_6_8_9 + X_6_9_7
 + X_6_9_8 + X_6_9_9 = 1
_C79: X_7_7_7 + X_7_7_8 + X_7_7_9 + X_7_8_7 + X_7_8_8 + X_7_8_9 + X_7_9_7
 + X_7_9_8 + X_7_9_9 = 1
_C8: X_8_1_1 + X_8_1_2 + X_8_1_3 + X_8_2_1 + X_8_2_2 + X_8_2_3 + X_8_3_1
 + X_8_3_2 + X_8_3_3 = 1
_C80: X_8_7_7 + X_8_7_8 + X_8_7_9 + X_8_8_7 + X_8_8_8 + X_8_8_9 + X_8_9_7
 + X_8_9_8 + X_8_9_9 = 1
_C81: X_9_7_7 + X_9_7_8 + X_9_7_9 + X_9_8_7 + X_9_8_8 + X_9_8_9 + X_9_9_7
 + X_9_9_8 + X_9_9_9 = 1
_C82: X_1_1_1 + X_1_1_2 + X_1_1_3 + X_1_1_4 + X_1_1_5 + X_1_1_6 + X_1_1_7
 + X_1_1_8 + X_1_1_9 = 1
_C83: X_1_1_1 + X_1_2_1 + X_1_3_1 + X_1_4_1 + X_1_5_1 + X_1_6_1 + X_1_7_1
 + X_1_8_1 + X_1_9_1 = 1
_C84: X_1_1_1 + X_2_1_1 + X_3_1_1 + X_4_1_1 + X_5_1_1 + X_6_1_1 + X_7_1_1
 + X_8_1_1 + X_9_1_1 = 1
_C85: X_1_2_1 + X_1_2_2 + X_1_2_3 + X_1_2_4 + X_1_2_5 + X_1_2_6 + X_1_2_7
 + X_1_2_8 + X_1_2_9 = 1
_C86: X_1_1_2 + X_1_2_2 + X_1_3_2 + X_1_4_2 + X_1_5_2 + X_1_6_2 + X_1_7_2
 + X_1_8_2 + X_1_9_2 = 1
_C87: X_1_1_2 + X_2_1_2 + X_3_1_2 + X_4_1_2 + X_5_1_2 + X_6_1_2 + X_7_1_2
 + X_8_1_2 + X_9_1_2 = 1
_C88: X_1_3_1 + X_1_3_2 + X_1_3_3 + X_1_3_4 + X_1_3_5 + X_1_3_6 + X_1_3_7
 + X_1_3_8 + X_1_3_9 = 1
_C89: X_1_1_3 + X_1_2_3 + X_1_3_3 + X_1_4_3 + X_1_5_3 + X_1_6_3 + X_1_7_3
 + X_1_8_3 + X_1_9_3 = 1
_C9: X_9_1_1 + X_9_1_2 + X_9_1_3 + X_9_2_1 + X_9_2_2 + X_9_2_3 + X_9_3_1
 + X_9_3_2 + X_9_3_3 = 1
_C90: X_1_1_3 + X_2_1_3 + X_3_1_3 + X_4_1_3 + X_5_1_3 + X_6_1_3 + X_7_1_3
 + X_8_1_3 + X_9_1_3 = 1
_C91: X_1_4_1 + X_1_4_2 + X_1_4_3 + X_1_4_4 + X_1_4_5 + X_1_4_6 + X_1_4_7
 + X_1_4_8 + X_1_4_9 = 1
_C92: X_1_1_4 + X_1_2_4 + X_1_3_4 + X_1_4_4 + X_1_5_4 + X_1_6_4 + X_1_7_4
 + X_1_8_4 + X_1_9_4 = 1
_C93: X_1_1_4 + X_2_1_4 + X_3_1_4 + X_4_1_4 + X_5_1_4 + X_6_1_4 + X_7_1_4
 + X_8_1_4 + X_9_1_4 = 1
_C94: X_1_5_1 + X_1_5_2 + X_1_5_3 + X_1_5_4 + X_1_5_5 + X_1_5_6 + X_1_5_7
 + X_1_5_8 + X_1_5_9 = 1
_C95: X_1_1_5 + X_1_2_5 + X_1_3_5 + X_1_4_5 + X_1_5_5 + X_1_6_5 + X_1_7_5
 + X_1_8_5 + X_1_9_5 = 1
_C96: X_1_1_5 + X_2_1_5 + X_3_1_5 + X_4_1_5 + X_5_1_5 + X_6_1_5 + X_7_1_5
 + X_8_1_5 + X_9_1_5 = 1
_C97: X_1_6_1 + X_1_6_2 + X_1_6_3 + X_1_6_4 + X_1_6_5 + X_1_6_6 + X_1_6_7
 + X_1_6_8 + X_1_6_9 = 1
_C98: X_1_1_6 + X_1_2_6 + X_1_3_6 + X_1_4_6 + X_1_5_6 + X_1_6_6 + X_1_7_6
 + X_1_8_6 + X_1_9_6 = 1
_C99: X_1_1_6 + X_2_1_6 + X_3_1_6 + X_4_1_6 + X_5_1_6 + X_6_1_6 + X_7_1_6
 + X_8_1_6 + X_9_1_6 = 1
Bounds
__dummy = 0
Binaries
X_1_1_1
X_1_1_2
X_1_1_3
X_1_1_4
X_1_1_5
X_1_1_6
X_1_1_7
X_1_1_8
X_1_1_9
X_1_2_1
X_1_2_2
X_1_2_3
X_1_2_4
X_1_2_5
X_1_2_6
X_1_2_7
X_1_2_8
X_1_2_9
X_1_3_1
X_1_3_2
X_1_3_3
X_1_3_4
X_1_3_5
X_1_3_6
X_1_3_7
X_1_3_8
X_1_3_9
X_1_4_1
X_1_4_2
X_1_4_3
X_1_4_4
X_1_4_5
X_1_4_6
X_1_4_7
X_1_4_8
X_1_4_9
X_1_5_1
X_1_5_2
X_1_5_3
X_1_5_4
X_1_5_5
X_1_5_6
X_1_5_7
X_1_5_8
X_1_5_9
X_1_6_1
X_1_6_2
X_1_6_3
X_1_6_4
X_1_6_5
X_1_6_6
X_1_6_7
X_1_6_8
X_1_6_9
X_1_7_1
X_1_7_2
X_1_7_3
X_1_7_4
X_1_7_5
X_1_7_6
X_1_7_7
X_1_7_8
X_1_7_9
X_1_8_1
X_1_8_2
X_1_8_3
X_1_8_4
X_1_8_5
X_1_8_6
X_1_8_7
X_1_8_8
X_1_8_9
X_1_9_1
X_1_9_2
X_1_9_3
X_1_9_4
X_1_9_5
X_1_9_6
X_1_9_7
X_1_9_8
X_1_9_9
X_2_1_1
X_2_1_2
X_2_1_3
X_2_1_4
X_2_1_5
X_2_1_6
X_2_1_7
X_2_1_8
X_2_1_9
X_2_2_1
X_2_2_2
X_2_2_3
X_2_2_4
X_2_2_5
X_2_2_6
X_2_2_7
X_2_2_8
X_2_2_9
X_2_3_1
X_2_3_2
X_2_3_3
X_2_3_4
X_2_3_5
X_2_3_6
X_2_3_7
X_2_3_8
X_2_3_9
X_2_4_1
X_2_4_2
X_2_4_3
X_2_4_4
X_2_4_5
X_2_4_6
X_2_4_7
X_2_4_8
X_2_4_9
X_2_5_1
X_2_5_2
X_2_5_3
X_2_5_4
X_2_5_5
X_2_5_6
X_2_5_7
X_2_5_8
X_2_5_9
X_2_6_1
X_2_6_2
X_2_6_3
X_2_6_4
X_2_6_5
X_2_6_6
X_2_6_7
X_2_6_8
X_2_6_9
X_2_7_1
X_2_7_2
X_2_7_3
X_2_7_4
X_2_7_5
X_2_7_6
X_2_7_7
X_2_7_8
X_2_7_9
X_2_8_1
X_2_8_2
X_2_8_3
X_2_8_4
X_2_8_5
X_2_8_6
X_2_8_7
X_2_8_8
X_2_8_9
X_2_9_1
X_2_9_2
X_2_9_3
X_2_9_4
X_2_9_5
X_2_9_6
X_2_9_7
X_2_9_8
X_2_9_9
X_3_1_1
X_3_1_2
X_3_1_3
X_3_1_4
X_3_1_5
X_3_1_6
X_3_1_7
X_3_1_8
X_3_1_9
X_3_2_1
X_3_2_2
X_3_2_3
X_3_2_4
X_3_2_5
X_3_2_6
X_3_2_7
X_3_2_8
X_3_2_9
X_3_3_1
X_3_3_2
X_3_3_3
X_3_3_4
X_3_3_5
X_3_3_6
X_3_3_7
X_3_3_8
X_3_3_9
X_3_4_1
X_3_4_2
X_3_4_3
X_3_4_4
X_3_4_5
X_3_4_6
X_3_4_7
X_3_4_8
X_3_4_9
X_3_5_1
X_3_5_2
X_3_5_3
X_3_5_4
X_3_5_5
X_3_5_6
X_3_5_7
X_3_5_8
X_3_5_9
X_3_6_1
X_3_6_2
X_3_6_3
X_3_6_4
X_3_6_5
X_3_6_6
X_3_6_7
X_3_6_8
X_3_6_9
X_3_7_1
X_3_7_2
X_3_7_3
X_3_7_4
X_3_7_5
X_3_7_6
X_3_7_7
X_3_7_8
X_3_7_9
X_3_8_1
X_3_8_2
X_3_8_3
X_3_8_4
X_3_8_5
X_3_8_6
X_3_8_7
X_3_8_8
X_3_8_9
X_3_9_1
X_3_9_2
X_3_9_3
X_3_9_4
X_3_9_5
X_3_9_6
X_3_9_7
X_3_9_8
X_3_9_9
X_4_1_1
X_4_1_2
X_4_1_3
X_4_1_4
X_4_1_5
X_4_1_6
X_4_1_7
X_4_1_8
X_4_1_9
X_4_2_1
X_4_2_2
X_4_2_3
X_4_2_4
X_4_2_5
X_4_2_6
X_4_2_7
X_4_2_8
X_4_2_9
X_4_3_1
X_4_3_2
X_4_3_3
X_4_3_4
X_4_3_5
X_4_3_6
X_4_3_7
X_4_3_8
X_4_3_9
X_4_4_1
X_4_4_2
X_4_4_3
X_4_4_4
X_4_4_5
X_4_4_6
X_4_4_7
X_4_4_8
X_4_4_9
X_4_5_1
X_4_5_2
X_4_5_3
X_4_5_4
X_4_5_5
X_4_5_6
X_4_5_7
X_4_5_8
X_4_5_9
X_4_6_1
X_4_6_2
X_4_6_3
X_4_6_4
X_4_6_5
X_4_6_6
X_4_6_7
X_4_6_8
X_4_6_9
X_4_7_1
X_4_7_2
X_4_7_3
X_4_7_4
X_4_7_5
X_4_7_6
X_4_7_7
X_4_7_8
X_4_7_9
X_4_8_1
X_4_8_2
X_4_8_3
X_4_8_4
X_4_8_5
X_4_8_6
X_4_8_7
X_4_8_8
X_4_8_9
X_4_9_1
X_4_9_2
X_4_9_3
X_4_9_4
X_4_9_5
X_4_9_6
X_4_9_7
X_4_9_8
X_4_9_9
X_5_1_1
X_5_1_2
X_5_1_3
X_5_1_4
X_5_1_5
X_5_1_6
X_5_1_7
X_5_1_8
X_5_1_9
X_5_2_1
X_5_2_2
X_5_2_3
X_5_2_4
X_5_2_5
X_5_2_6
X_5_2_7
X_5_2_8
X_5_2_9
X_5_3_1
X_5_3_2
X_5_3_3
X_5_3_4
X_5_3_5
X_5_3_6
X_5_3_7
X_5_3_8
X_5_3_9
X_5_4_1
X_5_4_2
X_5_4_3
X_5_4_4
X_5_4_5
X_5_4_6
X_5_4_7
X_5_4_8
X_5_4_9
X_5_5_1
X_5_5_2
X_5_5_3
X_5_5_4
X_5_5_5
X_5_5_6
X_5_5_7
X_5_5_8
X_5_5_9
X_5_6_1
X_5_6_2
X_5_6_3
X_5_6_4
X_5_6_5
X_5_6_6
X_5_6_7
X_5_6_8
X_5_6_9
X_5_7_1
X_5_7_2
X_5_7_3
X_5_7_4
X_5_7_5
X_5_7_6
X_5_7_7
X_5_7_8
X_5_7_9
X_5_8_1
X_5_8_2
X_5_8_3
X_5_8_4
X_5_8_5
X_5_8_6
X_5_8_7
X_5_8_8
X_5_8_9
X_5_9_1
X_5_9_2
X_5_9_3
X_5_9_4
X_5_9_5
X_5_9_6
X_5_9_7
X_5_9_8
X_5_9_9
X_6_1_1
X_6_1_2
X_6_1_3
X_6_1_4
X_6_1_5
X_6_1_6
X_6_1_7
X_6_1_8
X_6_1_9
X_6_2_1
X_6_2_2
X_6_2_3
X_6_2_4
X_6_2_5
X_6_2_6
X_6_2_7
X_6_2_8
X_6_2_9
X_6_3_1
X_6_3_2
X_6_3_3
X_6_3_4
X_6_3_5
X_6_3_6
X_6_3_7
X_6_3_8
X_6_3_9
X_6_4_1
X_6_4_2
X_6_4_3
X_6_4_4
X_6_4_5
X_6_4_6
X_6_4_7
X_6_4_8
X_6_4_9
X_6_5_1
X_6_5_2
X_6_5_3
X_6_5_4
X_6_5_5
X_6_5_6
X_6_5_7
X_6_5_8
X_6_5_9
X_6_6_1
X_6_6_2
X_6_6_3
X_6_6_4
X_6_6_5
X_6_6_6
X_6_6_7
X_6_6_8
X_6_6_9
X_6_7_1
X_6_7_2
X_6_7_3
X_6_7_4
X_6_7_5
X_6_7_6
X_6_7_7
X_6_7_8
X_6_7_9
X_6_8_1
X_6_8_2
X_6_8_3
X_6_8_4
X_6_8_5
X_6_8_6
X_6_8_7
X_6_8_8
X_6_8_9
X_6_9_1
X_6_9_2
X_6_9_3
X_6_9_4
X_6_9_5
X_6_9_6
X_6_9_7
X_6_9_8
X_6_9_9
X_7_1_1
X_7_1_2
X_7_1_3
X_7_1_4
X_7_1_5
X_7_1_6
X_7_1_7
X_7_1_8
X_7_1_9
X_7_2_1
X_7_2_2
X_7_2_3
X_7_2_4
X_7_2_5
X_7_2_6
X_7_2_7
X_7_2_8
X_7_2_9
X_7_3_1
X_7_3_2
X_7_3_3
X_7_3_4
X_7_3_5
X_7_3_6
X_7_3_7
X_7_3_8
X_7_3_9
X_7_4_1
X_7_4_2
X_7_4_3
X_7_4_4
X_7_4_5
X_7_4_6
X_7_4_7
X_7_4_8
X_7_4_9
X_7_5_1
X_7_5_2
X_7_5_3
X_7_5_4
X_7_5_5
X_7_5_6
X_7_5_7
X_7_5_8
X_7_5_9
X_7_6_1
X_7_6_2
X_7_6_3
X_7_6_4
X_7_6_5
X_7_6_6
X_7_6_7
X_7_6_8
X_7_6_9
X_7_7_1
X_7_7_2
X_7_7_3
X_7_7_4
X_7_7_5
X_7_7_6
X_7_7_7
X_7_7_8
X_7_7_9
X_7_8_1
X_7_8_2
X_7_8_3
X_7_8_4
X_7_8_5
X_7_8_6
X_7_8_7
X_7_8_8
X_7_8_9
X_7_9_1
X_7_9_2
X_7_9_3
X_7_9_4
X_7_9_5
X_7_9_6
X_7_9_7
X_7_9_8
X_7_9_9
X_8_1_1
X_8_1_2
X_8_1_3
X_8_1_4
X_8_1_5
X_8_1_6
X_8_1_7
X_8_1_8
X_8_1_9
X_8_2_1
X_8_2_2
X_8_2_3
X_8_2_4
X_8_2_5
X_8_2_6
X_8_2_7
X_8_2_8
X_8_2_9
X_8_3_1
X_8_3_2
X_8_3_3
X_8_3_4
X_8_3_5
X_8_3_6
X_8_3_7
X_8_3_8
X_8_3_9
X_8_4_1
X_8_4_2
X_8_4_3
X_8_4_4
X_8_4_5
X_8_4_6
X_8_4_7
X_8_4_8
X_8_4_9
X_8_5_1
X_8_5_2
X_8_5_3
X_8_5_4
X_8_5_5
X_8_5_6
X_8_5_7
X_8_5_8
X_8_5_9
X_8_6_1
X_8_6_2
X_8_6_3
X_8_6_4
X_8_6_5
X_8_6_6
X_8_6_7
X_8_6_8
X_8_6_9
X_8_7_1
X_8_7_2
X_8_7_3
X_8_7_4
X_8_7_5
X_8_7_6
X_8_7_7
X_8_7_8
X_8_7_9
X_8_8_1
X_8_8_2
X_8_8_3
X_8_8_4
X_8_8_5
X_8_8_6
X_8_8_7
X_8_8_8
X_8_8_9
X_8_9_1
X_8_9_2
X_8_9_3
X_8_9_4
X_8_9_5
X_8_9_6
X_8_9_7
X_8_9_8
X_8_9_9
X_9_1_1
X_9_1_2
X_9_1_3
X_9_1_4
X_9_1_5
X_9_1_6
X_9_1_7
X_9_1_8
X_9_1_9
X_9_2_1
X_9_2_2
X_9_2_3
X_9_2_4
X_9_2_5
X_9_2_6
X_9_2_7
X_9_2_8
X_9_2_9
X_9_3_1
X_9_3_2
X_9_3_3
X_9_3_4
X_9_3_5
X_9_3_6
X_9_3_7
X_9_3_8
X_9_3_9
X_9_4_1
X_9_4_2
X_9_4_3
X_9_4_4
X_9_4_5
X_9_4_6
X_9_4_7
X_9_4_8
X_9_4_9
X_9_5_1
X_9_5_2
X_9_5_3
X_9_5_4
X_9_5_5
X_9_5_6
X_9_5_7
X_9_5_8
X_9_5_9
X_9_6_1
X_9_6_2
X_9_6_3
X_9_6_4
X_9_6_5
X_9_6_6
X_9_6_7
X_9_6_8
X_9_6_9
X_9_7_1
X_9_7_2
X_9_7_3
X_9_7_4
X_9_7_5
X_9_7_6
X_9_7_7
X_9_7_8
X_9_7_9
X_9_8_1
X_9_8_2
X_9_8_3
X_9_8_4
X_9_8_5
X_9_8_6
X_9_8_7
X_9_8_8
X_9_8_9
X_9_9_1
X_9_9_2
X_9_9_3
X_9_9_4
X_9_9_5
X_9_9_6
X_9_9_7
X_9_9_8
X_9_9_9
End
